Version identifier: 22.1.0.0 | 2022-03-09 | 1a383f8ce
CPXPARAM_Threads                                 1
CPXPARAM_MIP_Strategy_VariableSelect             3
CPXPARAM_TimeLimit                               599.99998583599995
1 of 1 MIP starts provided solutions.
MIP start 'm1' defined initial solution with objective 1.0000.
Tried aggregator 1 time.
MIP Presolve eliminated 16 rows and 0 columns.
MIP Presolve modified 162 coefficients.
Reduced MIP has 1810 rows, 7800 columns, and 149728 nonzeros.
Reduced MIP has 7800 binaries, 0 generals, 0 SOSs, and 0 indicators.
Presolve time = 0.12 sec. (185.71 ticks)
Probing time = 0.03 sec. (30.05 ticks)
Tried aggregator 1 time.
Detecting symmetries...
Reduced MIP has 1810 rows, 7800 columns, and 149728 nonzeros.
Reduced MIP has 7800 binaries, 0 generals, 0 SOSs, and 0 indicators.
Presolve time = 0.10 sec. (140.51 ticks)
Probing time = 0.02 sec. (30.05 ticks)
Clique table members: 372.
MIP emphasis: balance optimality and feasibility.
MIP search method: dynamic search.
Parallel mode: none, using 1 thread.
Root relaxation solution time = 0.31 sec. (390.04 ticks)

        Nodes                                         Cuts/
   Node  Left     Objective  IInf  Best Integer    Best Bound    ItCnt     Gap

*     0+    0                            1.0000    45150.0000              --- 
      0     0      300.0000   359        1.0000      300.0000     2358     --- 
*     0+    0                          300.0000      300.0000             0.00%
      0     0        cutoff            300.0000      300.0000     2358    0.00%
Elapsed time = 1.40 sec. (1551.91 ticks, tree = 0.01 MB, solutions = 2)

Root node processing (before b&c):
  Real time             =    1.40 sec. (1552.69 ticks)
Sequential b&c:
  Real time             =    0.00 sec. (0.00 ticks)
                          ------------
Total (root+branch&cut) =    1.40 sec. (1552.69 ticks)
Primal:	300
Dual:	300
Status:	Optimal
Time:	1.41
Sequence:
	0
	4
	1
	6
	3
	7
	2
	7
	19
	1
	4
	9
	11
	10
	19
	7
	17
	7
	19
	7
	19
	10
	12
	2
	19
	16
	0
	11
	21
	15
	20
	9
	1
	10
	17
	1
	17
	14
	20
	19
	17
	5
	18
	19
	1
	19
	19
	18
	5
	8
	21
	23
	3
	23
	18
	8
	12
	11
	16
	0
	4
	24
	24
	13
	10
	24
	17
	24
	14
	13
	24
	23
	9
	0
	9
	16
	9
	12
	8
	24
	6
	20
	1
	9
	9
	20
	6
	23
	9
	17
	6
	10
	5
	4
	1
	19
	24
	3
	8
	11
	3
	10
	10
	11
	7
	19
	22
	2
	9
	20
	12
	11
	20
	17
	0
	16
	9
	6
	1
	4
	11
	11
	1
	21
	15
	14
	4
	2
	2
	15
	10
	11
	0
	14
	19
	1
	23
	13
	1
	11
	1
	21
	15
	24
	7
	11
	9
	23
	12
	2
	15
	20
	12
	9
	10
	6
	1
	20
	11
	1
	4
	21
	12
	11
	0
	13
	0
	3
	0
	16
	4
	12
	24
	11
	4
	6
	23
	5
	17
	17
	8
	2
	3
	21
	11
	1
	23
	17
	12
	21
	11
	5
	15
	8
	11
	6
	20
	22
	9
	21
	15
	21
	2
	9
	16
	18
	6
	23
	14
	5
	12
	2
	16
	22
	15
	6
	16
	2
	16
	12
	14
	16
	0
	15
	23
	23
	3
	23
	15
	0
	23
	3
	22
	8
	22
	7
	14
	1
	14
	14
	17
	14
	14
	12
	0
	4
	7
	17
	20
	24
	3
	20
	0
	4
	2
	24
	21
	15
	20
	22
	3
	16
	14
	16
	1
	13
	4
	21
	0
	17
	2
	21
	5
	6
	0
	21
	8
	17
	21
	18
	8
	18
	6
	16
	24
	17
	5
	8
	24
	15
	5
	8
	18
	16
	6
	18
	8
	18
	5
	6
